
Gurobi 10.0.1 (linux64) logging started Sun Nov 26 15:37:29 2023

Set parameter LogFile to value "ArtificialInstance/ExperimentV2/S4T4K1/BaSp/gurobi1.txt"
Gurobi Optimizer version 10.0.1 build v10.0.1rc0 (linux64)

CPU model: AMD EPYC 7H12 64-Core Processor, instruction set [SSE2|AVX|AVX2]
Thread count: 128 physical cores, 128 logical processors, using up to 32 threads

Academic license 656792 - for non-commercial use only - registered to b.___@student.vu.nl
Optimize a model with 1895 rows, 2800 columns and 9040 nonzeros
Model fingerprint: 0x2383b9b4
Variable types: 0 continuous, 2800 integer (2800 binary)
Coefficient statistics:
  Matrix range     [1e+00, 1e+00]
  Objective range  [9e-01, 2e+01]
  Bounds range     [1e+00, 1e+00]
  RHS range        [1e+00, 1e+00]
Found heuristic solution: objective 641.0328958
Presolve time: 0.01s
Presolved: 1895 rows, 2800 columns, 9040 nonzeros
Variable types: 0 continuous, 2800 integer (2800 binary)

Root relaxation: objective 3.887251e+01, 1562 iterations, 0.03 seconds (0.03 work units)

    Nodes    |    Current Node    |     Objective Bounds      |     Work
 Expl Unexpl |  Obj  Depth IntInf | Incumbent    BestBd   Gap | It/Node Time

     0     0   38.87251    0  320  641.03290   38.87251  93.9%     -    0s
H    0     0                     226.9586546   38.87251  82.9%     -    0s
H    0     0                     205.7099610   38.87251  81.1%     -    0s
H    0     0                     143.0192545   38.87251  72.8%     -    0s
H    0     0                      72.6450308   38.87251  46.5%     -    0s
     0     0   42.06514    0  350   72.64503   42.06514  42.1%     -    0s
H    0     0                      57.9199695   42.06514  27.4%     -    0s
H    0     0                      54.3924635   44.48889  18.2%     -    0s
     0     0   44.48889    0  313   54.39246   44.48889  18.2%     -    0s
H    0     0                      52.2240020   47.14279  9.73%     -    0s
     0     0   47.14279    0  474   52.22400   47.14279  9.73%     -    0s
     0     0   47.17059    0  489   52.22400   47.17059  9.68%     -    0s
     0     0   47.23463    0  491   52.22400   47.23463  9.55%     -    0s
     0     0   48.78266    0  581   52.22400   48.78266  6.59%     -    0s
     0     0   48.78461    0  558   52.22400   48.78461  6.59%     -    0s
     0     2   48.78461    0  556   52.22400   48.78461  6.59%     -    1s
*   66     0              10      52.1147565   52.11476  0.00%   105    1s

Cutting planes:
  Gomory: 5
  Zero half: 44
  RLT: 19

Explored 67 nodes (13277 simplex iterations) in 1.28 seconds (0.86 work units)
Thread count was 32 (of 128 available processors)

Solution count 9: 52.1148 52.224 54.3925 ... 641.033

Optimal solution found (tolerance 1.00e-04)
Best objective 5.211475648362e+01, best bound 5.211475648362e+01, gap 0.0000%
